40
1 0 6
2 0 3
2 1 10
4 3 1
5 0 5
6 2 6
6 4 10
6 5 5
7 1 1
7 3 9
7 6 12
8 0 11
8 3 1
8 4 11
8 5 3
9 1 3
9 5 9
9 6 12
10 0 5
10 3 1
10 7 9
10 8 1
11 0 8
11 5 2
11 6 11
12 0 8
12 2 6
12 5 10
12 6 9
12 7 4
12 9 1
12 11 4
13 0 6
13 3 11
13 4 2
13 5 9
13 6 3
13 10 10
13 11 6
13 12 12
14 1 11
14 2 2
14 3 7
14 5 2
14 9 7
14 11 11
14 12 4
14 13 1
15 0 10
15 2 3
15 3 6
15 5 7
15 6 8
15 7 4
15 9 2
15 10 12
15 14 8
16 0 6
16 1 8
16 4 7
16 5 11
16 7 2
17 5 9
17 7 6
17 8 6
17 9 2
17 10 8
17 12 1
17 13 6
17 16 7
18 0 5
18 2 7
18 4 4
18 5 8
18 7 8
18 8 3
18 10 6
18 12 9
18 13 5
18 14 5
19 0 1
19 2 3
19 5 2
19 6 6
19 10 6
19 11 2
19 13 8
19 16 9
19 17 12
19 18 5
20 1 2
20 2 5
20 4 11
20 8 1
20 11 7
20 12 12
20 13 11
20 14 8
20 17 4
21 1 4
21 3 4
21 10 7
21 13 3
21 14 8
21 16 5
21 18 9
21 19 4
21 20 6
22 2 2
22 3 4
22 5 10
22 6 5
22 7 8
22 8 5
22 9 7
22 10 7
22 13 6
22 14 3
22 16 7
22 19 5
23 0 10
23 1 8
23 2 12
23 3 11
23 4 3
23 5 9
23 6 7
23 8 11
23 9 4
23 10 1
23 11 12
23 12 9
23 15 3
23 17 3
23 18 9
23 22 5
24 0 1
24 3 10
24 4 5
24 5 2
24 7 11
24 8 9
24 9 12
24 10 2
24 13 4
24 14 11
24 16 2
24 18 6
24 22 7
25 0 10
25 4 9
25 5 5
25 7 7
25 9 8
25 10 1
25 11 4
25 12 5
25 15 10
25 16 9
25 17 4
25 18 11
25 19 11
25 20 1
25 21 2
26 0 1
26 2 8
26 7 10
26 11 12
26 12 6
26 13 2
26 16 6
26 17 2
26 19 7
26 23 7
26 24 9
27 0 1
27 1 9
27 2 4
27 4 2
27 7 9
27 8 8
27 10 9
27 14 12
27 16 7
27 19 7
27 20 3
27 21 1
27 22 12
27 23 9
28 1 3
28 4 3
28 6 8
28 7 12
28 8 2
28 10 12
28 11 12
28 12 2
28 14 4
28 17 10
28 18 1
28 19 11
28 20 6
28 23 4
28 24 10
28 26 2
29 0 12
29 2 3
29 4 11
29 6 9
29 7 9
29 8 4
29 9 12
29 12 12
29 13 9
29 14 2
29 15 9
29 18 5
29 19 12
29 22 6
29 23 11
29 24 7
29 28 2
30 1 12
30 4 11
30 8 12
30 9 4
30 12 4
30 14 7
30 15 12
30 16 5
30 17 2
30 19 12
30 20 1
30 23 3
30 24 12
30 25 3
30 29 1
31 5 8
31 6 3
31 8 11
31 10 4
31 11 8
31 13 6
31 17 1
31 19 9
31 23 2
31 24 8
31 25 12
31 28 11
31 29 2
32 0 9
32 1 4
32 3 7
32 5 3
32 9 9
32 11 8
32 14 2
32 16 12
32 21 8
32 22 12
32 23 5
32 24 10
32 26 5
32 29 2
32 31 1
33 4 10
33 7 5
33 16 6
33 17 3
33 21 1
33 22 7
33 26 5
33 27 8
33 28 10
34 0 10
34 3 12
34 4 10
34 5 11
34 7 2
34 8 3
34 10 3
34 14 9
34 16 1
34 17 6
34 20 1
34 23 2
34 24 12
34 27 5
34 28 9
34 31 3
34 33 11
35 1 6
35 3 7
35 4 6
35 5 3
35 7 3
35 10 2
35 13 7
35 14 6
35 15 11
35 16 3
35 17 9
35 20 10
35 25 9
35 27 9
35 28 9
35 29 6
35 30 4
35 32 2
35 34 5
36 0 10
36 2 2
36 3 8
36 6 4
36 8 6
36 9 7
36 10 2
36 11 4
36 14 3
36 16 10
36 17 6
36 18 2
36 19 4
36 20 4
36 24 6
36 26 7
36 29 2
36 31 2
36 32 11
36 35 1
37 1 5
37 2 6
37 3 6
37 5 2
37 7 10
37 14 2
37 15 11
37 16 3
37 17 6
37 18 9
37 21 6
37 23 2
37 25 9
37 28 2
37 29 12
37 30 6
37 32 1
37 33 10
37 35 4
38 0 12
38 1 6
38 3 10
38 6 12
38 9 1
38 10 8
38 13 5
38 17 1
38 18 2
38 19 6
38 21 4
38 22 12
38 23 10
38 27 4
38 29 7
38 30 1
38 31 6
38 35 4
38 36 3
38 37 8
39 3 9
39 4 9
39 5 10
39 6 12
39 7 8
39 10 11
39 14 7
39 15 5
39 17 4
39 20 9
39 21 4
39 23 12
39 24 8
39 25 8
39 26 11
39 27 12
39 29 7
39 32 1
39 35 2
39 38 8
